[2026-03-24T15:32:09.671Z] Pipeline "set_vm-4-t1_vm-4-t1_s016_g001" → 2026_03_24_15_32_09_set_vm-4-t1_vm-4-t1_s016_g001_max.sol
Set parameter Username
Set parameter LicenseID to value 2797659
Set parameter LogFile to value "gurobi.log"
Using license file /opt/gurobi/gurobi.lic
Academic license - for non-commercial use only - expires 2027-03-24

Gurobi Optimizer version 13.0.1 build v13.0.1rc0 (linux64 - "Ubuntu 24.04.4 LTS")
Copyright (c) 2026, Gurobi Optimization, LLC

Warning: Duplicate section found (read 'binary') - Is a variable name equal to an LP file format keyword?
Warning: Duplicate section found (read 'binary') - Is a variable name equal to an LP file format keyword?
Warning: Duplicate section found (read 'binary') - Is a variable name equal to an LP file format keyword?
Warning: Duplicate section found (read 'binary') - Is a variable name equal to an LP file format keyword?
Warning: Duplicate section found (read 'binary') - Is a variable name equal to an LP file format keyword?
Warning: Duplicate section found (read 'binary') - Is a variable name equal to an LP file format keyword?
Warning: Duplicate section found (read 'binary') - Is a variable name equal to an LP file format keyword?
Warning: Duplicate section found (read 'binary') - Is a variable name equal to an LP file format keyword?
Warning: Duplicate section found (read 'binary') - Is a variable name equal to an LP file format keyword?
Warning: Duplicate section found (read 'binary') - Is a variable name equal to an LP file format keyword?
Warning: Further warnings of this type will be omitted.
Read LP format model from file /root/bgw/data/uploads/2026_03_24_15_32_09_set_vm-4-t1_vm-4-t1_s016_g001_max.lp
Reading time = 0.03 seconds
: 30814 rows, 1168 columns, 94077 nonzeros

Using Gurobi shared library /opt/gurobi1301/linux64/lib/libgurobi.so.13.0.1

CPU model: AMD EPYC-Genoa Processor, instruction set [SSE2|AVX|AVX2|AVX512]
Thread count: 16 physical cores, 16 logical processors, using up to 16 threads

Optimize a model with 30814 rows, 1168 columns and 94077 nonzeros (Max)
Model fingerprint: 0xe300fe87
Model has 20 linear objective coefficients
Variable types: 66 continuous, 1102 integer (1102 binary)
Coefficient statistics:
  Matrix range     [1e+00, 5e+01]
  Objective range  [1e+00, 1e+00]
  Bounds range     [1e+00, 1e+00]
  RHS range        [1e+00, 5e+01]

Found heuristic solution: objective 20.0000000
Presolve removed 422 rows and 114 columns
Presolve time: 0.14s
Presolved: 30392 rows, 1054 columns, 91434 nonzeros
Variable types: 0 continuous, 1054 integer (1048 binary)
Found heuristic solution: objective 27.0000000
Root relaxation presolved: 15212 rows, 16234 columns, 61074 nonzeros


Root relaxation: objective 1.050000e+02, 245 iterations, 0.07 seconds (0.09 work units)

    Nodes    |    Current Node    |     Objective Bounds      |     Work
 Expl Unexpl |  Obj  Depth IntInf | Incumbent    BestBd   Gap | It/Node Time

     0     0  105.00000    0   14   27.00000  105.00000   289%     -    0s
H    0     0                      49.0000000  105.00000   114%     -    0s
H    0     0                      52.0000000  105.00000   102%     -    0s
H    0     0                      53.0000000  105.00000  98.1%     -    0s
H    0     0                      55.0000000  105.00000  90.9%     -    0s
     0     0  105.00000    0   19   55.00000  105.00000  90.9%     -    0s
     0     0  105.00000    0   20   55.00000  105.00000  90.9%     -    0s
     0     0  105.00000    0   14   55.00000  105.00000  90.9%     -    0s
     0     0   98.00000    0   19   55.00000   98.00000  78.2%     -    0s
     0     0   98.00000    0   19   55.00000   98.00000  78.2%     -    0s
     0     0   98.00000    0   19   55.00000   98.00000  78.2%     -    0s
     0     0   98.00000    0   19   55.00000   98.00000  78.2%     -    0s
     0     0   98.00000    0   14   55.00000   98.00000  78.2%     -    0s
     0     0   98.00000    0   20   55.00000   98.00000  78.2%     -    1s
     0     0   98.00000    0   14   55.00000   98.00000  78.2%     -    1s
     0     0   98.00000    0   19   55.00000   98.00000  78.2%     -    1s
     0     0   98.00000    0   14   55.00000   98.00000  78.2%     -    1s
     0     0   98.00000    0   14   55.00000   98.00000  78.2%     -    1s
     0     0   98.00000    0   14   55.00000   98.00000  78.2%     -    1s
     0     2   98.00000    0   14   55.00000   98.00000  78.2%     -    1s
   291   138 infeasible   14        55.00000   97.04545  76.4%   348    5s
   824   186   76.33893    9  125   55.00000   92.05992  67.4%   303   10s
  1224   174 infeasible   13        55.00000   84.75002  54.1%   335   15s
  1905   126   57.93333   12  101   55.00000   72.88636  32.5%   356   20s

Cutting planes:
  Cover: 11
  MIR: 3
  Inf proof: 41
  Zero half: 1

Explored 2533 nodes (960101 simplex iterations) in 24.96 seconds (49.54 work units)
Thread count was 16 (of 16 available processors)

Solution count 6: 55 53 52 ... 20

Optimal solution found (tolerance 1.00e-04)
Best objective 5.500000000000e+01, best bound 5.500000000000e+01, gap 0.0000%

Wrote result file '/root/bgw/data/results/2026_03_24_15_32_09_set_vm-4-t1_vm-4-t1_s016_g001_max.sol'

